certificates/rado_a15_c100_N44.cnf
c Rad2 upper bound instance: x1 + 15*x2 - x3 = 100, interval [1,44]
p cnf 44 258
1 6 7 0
-1 -6 -7 0
1 8 21 0
-1 -8 -21 0
1 9 36 0
-1 -9 -36 0
2 7 0
-2 -7 0
2 8 22 0
-2 -8 -22 0
2 9 37 0
-2 -9 -37 0
3 7 8 0
-3 -7 -8 0
3 8 23 0
-3 -8 -23 0
3 9 38 0
-3 -9 -38 0
4 7 9 0
-4 -7 -9 0
4 8 24 0
-4 -8 -24 0
4 9 39 0
-4 -9 -39 0
5 7 10 0
-5 -7 -10 0
5 8 25 0
-5 -8 -25 0
5 9 40 0
-5 -9 -40 0
6 7 11 0
-6 -7 -11 0
6 8 26 0
-6 -8 -26 0
6 9 41 0
-6 -9 -41 0
7 12 0
-7 -12 0
7 8 27 0
-7 -8 -27 0
7 9 42 0
-7 -9 -42 0
7 8 13 0
-7 -8 -13 0
8 28 0
-8 -28 0
8 9 43 0
-8 -9 -43 0
7 9 14 0
-7 -9 -14 0
8 9 29 0
-8 -9 -29 0
9 44 0
-9 -44 0
7 10 15 0
-7 -10 -15 0
8 10 30 0
-8 -10 -30 0
1 6 11 0
-1 -6 -11 0
7 11 16 0
-7 -11 -16 0
8 11 31 0
-8 -11 -31 0
2 6 12 0
-2 -6 -12 0
7 12 17 0
-7 -12 -17 0
8 12 32 0
-8 -12 -32 0
3 6 13 0
-3 -6 -13 0
7 13 18 0
-7 -13 -18 0
8 13 33 0
-8 -13 -33 0
4 6 14 0
-4 -6 -14 0
7 14 19 0
-7 -14 -19 0
8 14 34 0
-8 -14 -34 0
5 6 15 0
-5 -6 -15 0
7 15 20 0
-7 -15 -20 0
8 15 35 0
-8 -15 -35 0
6 16 0
-6 -16 0
7 16 21 0
-7 -16 -21 0
8 16 36 0
-8 -16 -36 0
6 7 17 0
-6 -7 -17 0
7 17 22 0
-7 -17 -22 0
8 17 37 0
-8 -17 -37 0
6 8 18 0
-6 -8 -18 0
7 18 23 0
-7 -18 -23 0
8 18 38 0
-8 -18 -38 0
6 9 19 0
-6 -9 -19 0
7 19 24 0
-7 -19 -24 0
8 19 39 0
-8 -19 -39 0
6 10 20 0
-6 -10 -20 0
7 20 25 0
-7 -20 -25 0
8 20 40 0
-8 -20 -40 0
6 11 21 0
-6 -11 -21 0
7 21 26 0
-7 -21 -26 0
8 21 41 0
-8 -21 -41 0
6 12 22 0
-6 -12 -22 0
7 22 27 0
-7 -22 -27 0
8 22 42 0
-8 -22 -42 0
6 13 23 0
-6 -13 -23 0
7 23 28 0
-7 -23 -28 0
8 23 43 0
-8 -23 -43 0
6 14 24 0
-6 -14 -24 0
7 24 29 0
-7 -24 -29 0
8 24 44 0
-8 -24 -44 0
6 15 25 0
-6 -15 -25 0
7 25 30 0
-7 -25 -30 0
1 5 26 0
-1 -5 -26 0
6 16 26 0
-6 -16 -26 0
7 26 31 0
-7 -26 -31 0
2 5 27 0
-2 -5 -27 0
6 17 27 0
-6 -17 -27 0
7 27 32 0
-7 -27 -32 0
3 5 28 0
-3 -5 -28 0
6 18 28 0
-6 -18 -28 0
7 28 33 0
-7 -28 -33 0
4 5 29 0
-4 -5 -29 0
6 19 29 0
-6 -19 -29 0
7 29 34 0
-7 -29 -34 0
5 30 0
-5 -30 0
6 20 30 0
-6 -20 -30 0
7 30 35 0
-7 -30 -35 0
5 6 31 0
-5 -6 -31 0
6 21 31 0
-6 -21 -31 0
7 31 36 0
-7 -31 -36 0
5 7 32 0
-5 -7 -32 0
6 22 32 0
-6 -22 -32 0
7 32 37 0
-7 -32 -37 0
5 8 33 0
-5 -8 -33 0
6 23 33 0
-6 -23 -33 0
7 33 38 0
-7 -33 -38 0
5 9 34 0
-5 -9 -34 0
6 24 34 0
-6 -24 -34 0
7 34 39 0
-7 -34 -39 0
5 10 35 0
-5 -10 -35 0
6 25 35 0
-6 -25 -35 0
7 35 40 0
-7 -35 -40 0
5 11 36 0
-5 -11 -36 0
6 26 36 0
-6 -26 -36 0
7 36 41 0
-7 -36 -41 0
5 12 37 0
-5 -12 -37 0
6 27 37 0
-6 -27 -37 0
7 37 42 0
-7 -37 -42 0
5 13 38 0
-5 -13 -38 0
6 28 38 0
-6 -28 -38 0
7 38 43 0
-7 -38 -43 0
5 14 39 0
-5 -14 -39 0
6 29 39 0
-6 -29 -39 0
7 39 44 0
-7 -39 -44 0
5 15 40 0
-5 -15 -40 0
6 30 40 0
-6 -30 -40 0
1 4 41 0
-1 -4 -41 0
5 16 41 0
-5 -16 -41 0
6 31 41 0
-6 -31 -41 0
2 4 42 0
-2 -4 -42 0
5 17 42 0
-5 -17 -42 0
6 32 42 0
-6 -32 -42 0
3 4 43 0
-3 -4 -43 0
5 18 43 0
-5 -18 -43 0
6 33 43 0
-6 -33 -43 0
4 44 0
-4 -44 0
5 19 44 0
-5 -19 -44 0
6 34 44 0
-6 -34 -44 0
