certificates/rado_a15_c100_N44.drat
-44 0
9 0
4 0
-39 0
-7 0
0
